(declare-const X String)
; ^[-+]?\d+(\.\d)?\d*$
(assert (str.in_re X (re.++ (re.opt (re.union (str.to_re "-") (str.to_re "+"))) (re.+ (re.range "0" "9")) (re.opt (re.++ (str.to_re ".") (re.range "0" "9"))) (re.* (re.range "0" "9")) (str.to_re "\u{a}"))))
; /^Host:\s*?[a-f0-9]{63,64}\./Him
(assert (not (str.in_re X (re.++ (str.to_re "/Host:") (re.* (re.union (str.to_re " ") (str.to_re "\u{9}") (str.to_re "\u{a}") (str.to_re "\u{c}") (str.to_re "\u{d}"))) ((_ re.loop 63 64) (re.union (re.range "a" "f") (re.range "0" "9"))) (str.to_re "./Him\u{a}")))))
; http\x3A\x2F\x2Ftv\x2Eseekmo\x2Ecom\x2Fshowme\x2Easpx\x3Fkeyword=
(assert (not (str.in_re X (str.to_re "http://tv.seekmo.com/showme.aspx?keyword=\u{a}"))))
(check-sat)
